Problem:    cifreVaganti
Rows:       51
Columns:    72 (72 integer, 72 binary)
Non-zeros:  232
Status:     INTEGER OPTIMAL
Objective:  0 (MINimum)

   No.   Row name        Activity     Lower bound   Upper bound
------ ------------    ------------- ------------- -------------
     1 TutteDiverse[1]
                                   0                           1 
     2 TutteDiverse[2]
                                   1                           1 
     3 TutteDiverse[3]
                                   0                           1 
     4 TutteDiverse[4]
                                   0                           1 
     5 TutteDiverse[5]
                                   1                           1 
     6 TutteDiverse[6]
                                   0                           1 
     7 TutteDiverse[7]
                                   1                           1 
     8 TutteDiverse[8]
                                   1                           1 
     9 TutteDiverse[9]
                                   0                           1 
    10 Assign[0]                   1             1             = 
    11 Assign[1]                   1             1             = 
    12 Assign[2]                   1             1             = 
    13 Assign[3]                   1             1             = 
    14 Permut1[1]                  0            -0             = 
    15 Permut1[2]                  0            -0             = 
    16 Permut1[3]                  0            -0             = 
    17 Permut1[4]                  0            -0             = 
    18 Permut1[5]                  0            -0             = 
    19 Permut1[6]                  0            -0             = 
    20 Permut1[7]                  0            -0             = 
    21 Permut1[8]                  0            -0             = 
    22 Permut1[9]                  0            -0             = 
    23 Permut2[1]                  0            -0             = 
    24 Permut2[2]                  0            -0             = 
    25 Permut2[3]                  0            -0             = 
    26 Permut2[4]                  0            -0             = 
    27 Permut2[5]                  0            -0             = 
    28 Permut2[6]                  0            -0             = 
    29 Permut2[7]                  0            -0             = 
    30 Permut2[8]                  0            -0             = 
    31 Permut2[9]                  0            -0             = 
    32 Permut3[1]                  0            -0             = 
    33 Permut3[2]                  0            -0             = 
    34 Permut3[3]                  0            -0             = 
    35 Permut3[4]                  0            -0             = 
    36 Permut3[5]                  0            -0             = 
    37 Permut3[6]                  0            -0             = 
    38 Permut3[7]                  0            -0             = 
    39 Permut3[8]                  0            -0             = 
    40 Permut3[9]                  0            -0             = 
    41 Permut4[1]                  0            -0             = 
    42 Permut4[2]                  0            -0             = 
    43 Permut4[3]                  0            -0             = 
    44 Permut4[4]                  0            -0             = 
    45 Permut4[5]                  0            -0             = 
    46 Permut4[6]                  0            -0             = 
    47 Permut4[7]                  0            -0             = 
    48 Permut4[8]                  0            -0             = 
    49 Permut4[9]                  0            -0             = 
    50 Somma                    8612          8612             = 
    51 speciali                    2             2             = 

   No. Column name       Activity     Lower bound   Upper bound
------ ------------    ------------- ------------- -------------
     1 x[0,1]       *              0             0             1 
     2 x[1,1]       *              0             0             1 
     3 x[2,1]       *              0             0             1 
     4 x[3,1]       *              0             0             1 
     5 x[0,2]       *              0             0             1 
     6 x[1,2]       *              0             0             1 
     7 x[2,2]       *              0             0             1 
     8 x[3,2]       *              1             0             1 
     9 x[0,3]       *              0             0             1 
    10 x[1,3]       *              0             0             1 
    11 x[2,3]       *              0             0             1 
    12 x[3,3]       *              0             0             1 
    13 x[0,4]       *              0             0             1 
    14 x[1,4]       *              0             0             1 
    15 x[2,4]       *              0             0             1 
    16 x[3,4]       *              0             0             1 
    17 x[0,5]       *              1             0             1 
    18 x[1,5]       *              0             0             1 
    19 x[2,5]       *              0             0             1 
    20 x[3,5]       *              0             0             1 
    21 x[0,6]       *              0             0             1 
    22 x[1,6]       *              0             0             1 
    23 x[2,6]       *              0             0             1 
    24 x[3,6]       *              0             0             1 
    25 x[0,7]       *              0             0             1 
    26 x[1,7]       *              0             0             1 
    27 x[2,7]       *              1             0             1 
    28 x[3,7]       *              0             0             1 
    29 x[0,8]       *              0             0             1 
    30 x[1,8]       *              1             0             1 
    31 x[2,8]       *              0             0             1 
    32 x[3,8]       *              0             0             1 
    33 x[0,9]       *              0             0             1 
    34 x[1,9]       *              0             0             1 
    35 x[2,9]       *              0             0             1 
    36 x[3,9]       *              0             0             1 
    37 y[1,1]       *              0             0             1 
    38 y[1,2]       *              1             0             1 
    39 y[1,3]       *              0             0             1 
    40 y[1,4]       *              0             0             1 
    41 y[1,5]       *              0             0             1 
    42 y[1,6]       *              0             0             1 
    43 y[1,7]       *              0             0             1 
    44 y[1,8]       *              0             0             1 
    45 y[1,9]       *              0             0             1 
    46 y[0,1]       *              0             0             1 
    47 y[0,2]       *              0             0             1 
    48 y[0,3]       *              0             0             1 
    49 y[0,4]       *              0             0             1 
    50 y[0,5]       *              0             0             1 
    51 y[0,6]       *              0             0             1 
    52 y[0,7]       *              1             0             1 
    53 y[0,8]       *              0             0             1 
    54 y[0,9]       *              0             0             1 
    55 y[2,1]       *              0             0             1 
    56 y[2,2]       *              0             0             1 
    57 y[2,3]       *              0             0             1 
    58 y[2,4]       *              0             0             1 
    59 y[2,5]       *              0             0             1 
    60 y[2,6]       *              0             0             1 
    61 y[2,7]       *              0             0             1 
    62 y[2,8]       *              1             0             1 
    63 y[2,9]       *              0             0             1 
    64 y[3,1]       *              0             0             1 
    65 y[3,2]       *              0             0             1 
    66 y[3,3]       *              0             0             1 
    67 y[3,4]       *              0             0             1 
    68 y[3,5]       *              1             0             1 
    69 y[3,6]       *              0             0             1 
    70 y[3,7]       *              0             0             1 
    71 y[3,8]       *              0             0             1 
    72 y[3,9]       *              0             0             1 

Integer feasibility conditions:

KKT.PE: max.abs.err = 0.00e+000 on row 0
        max.rel.err = 0.00e+000 on row 0
        High quality

KKT.PB: max.abs.err = 0.00e+000 on row 0
        max.rel.err = 0.00e+000 on row 0
        High quality

End of output
